43485
85,87,89,90,91,88,94,92,93,97,98,102,156,157,158,159,160,161,162,166,164,163,169,165,172,174,176,175,173,171,170,135,136,184,141,185,186,187,190,188,189,177,178,180,181,179,182,183,195,196,194,193,191,198,200,202,201,199,197,192,150,151,152,153,155,154,148,149,147,146,25,24,23,22,19,21,20,26,33,34,35,36,37,130,131,129,128,127,28,27,29,137,142,138,139,143,144,145,140,132,126,125,133,134,167,168,117,116,115,114,101,113,122,121,120,124,123,39,38,118,40,41,103,106,108,99,111,110,109,107,105,104,119,112,100,96,95,50,48,49,47,46,45,42,44,43,56,53,52,55,54,51,30,31,32,15,16,14,13,10,12,11,18,17,9,7,6,8,4,5,2,3,1,69,70,71,58,59,57,60,61,62,72,73,64,63,65,66,67,68,74,75,76,77,78,79,80,82,81,83,86,84,85
